17,2	0,0	5,9	16,0	0,0	0,0	0,0	0,0	0,0	12,5
13,6	16,9	0,0	8,5	6,2	0,0	0,0	18,1	0,0	0,0
0,0	0,0	7,9	0,0	12,0	9,8	0,0	0,0	17,2	0,0
17,8	0,0	12,6	0,0	0,0	0,0	13,5	0,0	0,0	0,0
0,0	14,6	0,0	16,5	19,4	0,0	0,0	18,1	0,0	0,0
0,0	12,8	18,0	0,0	6,2	9,5	0,0	0,0	14,7	0,0
0,0	10,6	0,0	17,8	0,0	0,0	14,4	0,0	0,0	8,9
8,4	0,0	7,9	0,0	0,0	0,0	0,0	0,0	0,0	8,0
0,0	10,6	0,0	8,0	13,7	0,0	0,0	19,8	0,0	0,0
0,0	0,0	6,8	0,0	0,0	6,1	12,2	0,0	0,0	11,0
0,0	19,4	0,0	0,0	7,6	0,0	13,4	0,0	12,8	12,0
7,3	0,0	17,3	0,0	8,5	0,0	14,1	10,6	9,4	0,0
0,0	13,8	0,0	0,0	0,0	10,4	0,0	8,1	12,7	7,0
7,2	11,9	7,7	0,0	0,0	16,5	0,0	15,7	8,1	0,0
6,4	0,0	8,3	0,0	5,5	9,0	13,3	18,1	0,0	0,0
0,0	7,6	0,0	5,8	0,0	8,3	0,0	18,4	0,0	0,0
9,1	0,0	15,1	14,8	10,3	0,0	0,0	19,1	0,0	0,0
0,0	0,0	19,5	0,0	0,0	18,0	14,3	0,0	6,8	9,9
18,6	0,0	0,0	11,0	6,9	9,0	5,4	12,4	0,0	19,5
0,0	6,6	0,0	5,3	0,0	0,0	17,7	0,0	18,2	16,3
									
4,2	2,8	3,1	2,9	4,7	4,8	2,6	4,7	4,5	4,3
